* ENCODING=ISO-8859-1
NAME          CPLEX
ROWS
 N  obj1    
 G  c1      
 G  c2      
 G  c3      
 G  c4      
 G  c5      
 G  c6      
 G  c7      
 G  c8      
 G  c9      
 G  c10     
 G  c11     
 G  c12     
 G  c13     
 G  c14     
 G  c15     
 G  c16     
 G  c17     
 G  c18     
 G  c19     
 G  c20     
 G  c21     
 G  c22     
 G  c23     
 G  c24     
 G  c25     
 G  c26     
 G  c27     
 G  c28     
 G  c29     
 G  c30     
 G  c31     
 G  c32     
 G  c33     
 G  c34     
 G  c35     
 G  c36     
 G  c37     
 G  c38     
 G  c39     
 G  c40     
 G  c41     
 G  c42     
 G  c43     
 G  c44     
 G  c45     
 G  c46     
 G  c47     
 G  c48     
 G  c49     
 G  c50     
COLUMNS
    MARK0000  'MARKER'                 'INTORG'
    x1        obj1                            1
    x1        c9                            884
    x1        c30                           394
    x2        obj1                            1
    x2        c5                            900
    x2        c6                            301
    x2        c9                            354
    x2        c28                           567
    x2        c36                           482
    x2        c50                           111
    x3        obj1                            1
    x3        c5                            170
    x3        c21                           724
    x3        c32                           365
    x3        c35                           694
    x3        c37                           126
    x3        c47                           762
    x4        obj1                            1
    x4        c31                           396
    x4        c41                           923
    x4        c44                           730
    x4        c46                           685
    x4        c47                           641
    x5        obj1                            1
    x5        c4                            673
    x5        c6                            177
    x5        c24                           451
    x5        c38                           134
    x5        c39                           849
    x5        c41                           771
    x6        obj1                            1
    x6        c11                           239
    x6        c21                           125
    x6        c37                           112
    x7        obj1                            1
    x7        c11                           891
    x8        obj1                            1
    x8        c1                            819
    x8        c16                           848
    x8        c22                           191
    x8        c24                           444
    x8        c42                           413
    x9        obj1                            1
    x9        c12                           374
    x9        c22                           635
    x9        c48                           200
    x9        c50                           978
    x10       obj1                            1
    x10       c8                            306
    x10       c16                           580
    x10       c18                           204
    x10       c27                           913
    x10       c28                           223
    x10       c33                           541
    x10       c39                           551
    x10       c46                           924
    x11       obj1                            1
    x11       c23                           986
    x11       c26                           277
    x11       c34                           588
    x11       c43                           594
    x12       obj1                            1
    x12       c6                            795
    x12       c45                           172
    x13       obj1                            1
    x13       c2                            528
    x13       c8                            932
    x13       c10                           292
    x13       c22                           770
    x13       c35                           215
    x13       c42                           586
    x13       c47                           237
    x14       obj1                            1
    x14       c2                            736
    x14       c20                           708
    x14       c22                           131
    x14       c24                           344
    x14       c29                           678
    x14       c33                           347
    x14       c45                           343
    x14       c47                           583
    x15       obj1                            1
    x15       c1                            686
    x15       c14                           544
    x15       c18                           507
    x15       c20                           882
    x15       c24                           598
    x16       obj1                            1
    x16       c9                            769
    x16       c20                           984
    x16       c30                           466
    x16       c40                           567
    x16       c45                           515
    x17       obj1                            1
    x17       c17                           531
    x17       c34                           856
    x18       obj1                            1
    x18       c6                            534
    x18       c12                           146
    x18       c18                           965
    x18       c23                           673
    x18       c28                           192
    x18       c43                           718
    x19       obj1                            1
    x19       c3                            350
    x19       c21                           539
    x19       c22                           828
    x19       c43                           638
    x20       obj1                            1
    x20       c10                           128
    x20       c17                           155
    x20       c29                           191
    x21       obj1                            1
    x21       c13                           484
    x21       c23                           354
    x21       c36                           103
    x21       c40                           705
    x21       c44                           253
    x22       obj1                            1
    x22       c8                            811
    x22       c30                           936
    x22       c37                           860
    x23       obj1                            1
    x23       c5                            279
    x23       c13                           646
    x23       c31                           728
    x24       obj1                            1
    x24       c1                            258
    x24       c5                            766
    x24       c11                           493
    x24       c13                           549
    x24       c16                           517
    x24       c19                           267
    x24       c39                           534
    x24       c50                           380
    x25       obj1                            1
    x25       c15                           937
    x25       c16                           353
    x25       c17                           592
    x25       c23                           482
    x25       c36                           431
    x25       c43                           825
    x25       c49                           948
    x26       obj1                            1
    x26       c5                            335
    x26       c28                           129
    x26       c38                           351
    x26       c45                           610
    x27       obj1                            1
    x27       c1                            278
    x27       c2                            243
    x27       c9                            481
    x27       c26                           948
    x27       c35                           348
    x27       c45                           445
    x28       obj1                            1
    x28       c3                            563
    x28       c12                           234
    x28       c16                           789
    x28       c24                           245
    x28       c25                           790
    x28       c44                           637
    x29       obj1                            1
    x29       c12                           636
    x29       c15                           521
    x29       c18                           588
    x29       c32                           763
    x29       c43                           415
    x30       obj1                            1
    x30       c2                            452
    x30       c14                           247
    x30       c15                           241
    x30       c33                           330
    x30       c49                           314
    x31       obj1                            1
    x31       c4                            146
    x31       c37                           936
    x32       obj1                            1
    x32       c21                           373
    x33       obj1                            1
    x33       c1                            725
    x33       c11                           838
    x33       c33                           288
    x33       c48                           686
    x34       obj1                            1
    x34       c4                            170
    x34       c39                           954
    x35       obj1                            1
    x35       c4                            116
    x35       c13                           942
    x35       c33                           500
    x36       obj1                            1
    x36       c4                            176
    x36       c26                           124
    x36       c29                           735
    x36       c38                           273
    x37       obj1                            1
    x37       c3                            869
    x37       c18                           417
    x37       c25                           730
    x37       c30                           337
    x37       c39                           561
    x38       obj1                            1
    x38       c2                            116
    x38       c4                            120
    x38       c8                            628
    x38       c11                           458
    x38       c16                           990
    x38       c23                           738
    x38       c27                           321
    x38       c29                           491
    x38       c38                           780
    x38       c41                           471
    x39       obj1                            1
    x39       c10                           746
    x39       c16                           951
    x39       c17                           439
    x39       c42                           362
    x39       c43                           357
    x40       obj1                            1
    x40       c4                            669
    x40       c7                            321
    x40       c31                           940
    x40       c50                           377
    x41       obj1                            1
    x41       c20                           922
    x41       c21                           953
    x41       c22                           255
    x41       c35                           773
    x42       obj1                            1
    x42       c13                           726
    x42       c14                           947
    x42       c17                           457
    x42       c19                           535
    x42       c50                           988
    x43       obj1                            1
    x43       c15                           192
    x43       c19                           391
    x43       c28                           817
    x43       c37                           317
    x43       c46                           654
    x43       c48                           765
    x44       obj1                            1
    x44       c14                           334
    x44       c15                           138
    x44       c17                           526
    x45       obj1                            1
    x45       c12                           152
    x45       c14                           397
    x45       c15                           686
    x45       c42                           744
    x45       c49                           338
    x46       obj1                            1
    x46       c10                           157
    x46       c12                           802
    x46       c27                           808
    x46       c45                           694
    x46       c46                           326
    x47       obj1                            1
    x47       c7                            895
    x47       c11                           319
    x47       c22                           623
    x47       c25                           362
    x47       c32                           402
    x47       c34                           739
    x47       c38                           428
    x47       c40                           177
    x48       obj1                            1
    x48       c12                           433
    x48       c19                           707
    x48       c20                           963
    x48       c26                           954
    x48       c34                           407
    x49       obj1                            1
    x49       c1                            963
    x49       c3                            752
    x49       c7                            382
    x49       c9                            898
    x49       c11                           315
    x49       c26                           622
    x49       c36                           540
    x50       obj1                            1
    x50       c10                           486
    x50       c18                           892
    x50       c21                           503
    x50       c36                           918
    x50       c47                           905
    MARK0001  'MARKER'                 'INTEND'
RHS
    rhs       c1                           1865
    rhs       c2                           1038
    rhs       c3                           1267
    rhs       c4                           1035
    rhs       c5                           1225
    rhs       c6                            904
    rhs       c7                            799
    rhs       c8                           1339
    rhs       c9                           1693
    rhs       c10                           905
    rhs       c11                          1777
    rhs       c12                          1389
    rhs       c13                          1674
    rhs       c14                          1235
    rhs       c15                          1358
    rhs       c16                          2514
    rhs       c17                          1350
    rhs       c18                          1787
    rhs       c19                           950
    rhs       c20                          2230
    rhs       c21                          1609
    rhs       c22                          1717
    rhs       c23                          1617
    rhs       c24                          1041
    rhs       c25                           941
    rhs       c26                          1463
    rhs       c27                          1021
    rhs       c28                           964
    rhs       c29                          1048
    rhs       c30                          1067
    rhs       c31                          1032
    rhs       c32                           765
    rhs       c33                          1003
    rhs       c34                          1295
    rhs       c35                          1015
    rhs       c36                          1237
    rhs       c37                          1176
    rhs       c38                           983
    rhs       c39                          1725
    rhs       c40                           725
    rhs       c41                          1083
    rhs       c42                          1053
    rhs       c43                          1774
    rhs       c44                           810
    rhs       c45                          1390
    rhs       c46                          1295
    rhs       c47                          1564
    rhs       c48                           826
    rhs       c49                           800
    rhs       c50                          1417
BOUNDS
 LI bnd       x1        0
 LI bnd       x2        0
 LI bnd       x3        0
 LI bnd       x4        0
 LI bnd       x5        0
 LI bnd       x6        0
 LI bnd       x7        0
 LI bnd       x8        0
 LI bnd       x9        0
 LI bnd       x10       0
 LI bnd       x11       0
 LI bnd       x12       0
 LI bnd       x13       0
 LI bnd       x14       0
 LI bnd       x15       0
 LI bnd       x16       0
 LI bnd       x17       0
 LI bnd       x18       0
 LI bnd       x19       0
 LI bnd       x20       0
 LI bnd       x21       0
 LI bnd       x22       0
 LI bnd       x23       0
 LI bnd       x24       0
 LI bnd       x25       0
 LI bnd       x26       0
 LI bnd       x27       0
 LI bnd       x28       0
 LI bnd       x29       0
 LI bnd       x30       0
 LI bnd       x31       0
 LI bnd       x32       0
 LI bnd       x33       0
 LI bnd       x34       0
 LI bnd       x35       0
 LI bnd       x36       0
 LI bnd       x37       0
 LI bnd       x38       0
 LI bnd       x39       0
 LI bnd       x40       0
 LI bnd       x41       0
 LI bnd       x42       0
 LI bnd       x43       0
 LI bnd       x44       0
 LI bnd       x45       0
 LI bnd       x46       0
 LI bnd       x47       0
 LI bnd       x48       0
 LI bnd       x49       0
 LI bnd       x50       0
ENDATA
